c Sudoku solution
p cnf 729 0
149 0
158 0
181 0
217 0
253 0
276 0
329 0
341 0
392 0
462 0
242 0
547 0
559 0
572 0
596 0
619 0
632 0
673 0
698 0
711 0
818 0
837 0
844 0
856 0
925 0
977 0
986 0
993 0
948 0
568 0
443 0
745 0
646 0
383 0
197 0
794 0
491 0
871 0
299 0
895 0
112 0
914 0
939 0
952 0
961 0
757 0
513 0
651 0
367 0
166 0
175 0
123 0
134 0
822 0
726 0
733 0
782 0
889 0
778 0
769 0
863 0
374 0
288 0
264 0
355 0
235 0
221 0
316 0
338 0
415 0
531 0
524 0
627 0
436 0
428 0
454 0
665 0
479 0
487 0
585 0
684 0
